datasets/2-dimensional/CL_09_25_04.vbp
2
988 963 
25
355 117 30
321 137 72
188 143 4
224 301 88
195 278 54
269 139 64
110 353 90
388 285 26
367 303 94
314 272 28
297 160 72
182 334 49
236 359 54
225 203 19
315 232 28
175 313 61
169 113 84
166 298 23
131 135 67
132 191 53
334 232 54
105 125 16
111 136 9
220 333 54
396 281 77
