datasets/2-dimensional-benchmark/CL_09_25_04.txt
988 963 
0 30 355 117 
1 72 321 137 
2 4 188 143 
3 88 224 301 
4 54 195 278 
5 64 269 139 
6 90 110 353 
7 26 388 285 
8 94 367 303 
9 28 314 272 
10 72 297 160 
11 49 182 334 
12 54 236 359 
13 19 225 203 
14 28 315 232 
15 61 175 313 
16 84 169 113 
17 23 166 298 
18 67 131 135 
19 53 132 191 
20 54 334 232 
21 16 105 125 
22 9 111 136 
23 54 220 333 
24 77 396 281 
